c File: data_files/evolved_graphs/g5003.col
c
c Auto generated graph
c
p edge 100 18
e 2 45
e 3 62
e 3 63
e 4 53
e 5 50
e 9 100
e 11 58
e 12 25
e 12 26
e 12 27
e 14 43
e 15 30
e 16 25
e 21 51
e 22 52
e 24 26
e 38 40
e 70 78
